# Objective value = -5.4149961660281987e+00
x_1_1 1.5761287893580143e+02
q_1_1 0
x_1_2 1.8986679478764412e+01
q_1_2 0
x_1_3 -2.0196425422886235e+00
q_1_3 0
x_1_4 1.7216806627831755e+01
q_1_4 0
x_1_5 -5.6922982369325092e+00
q_1_5 0
x_2_1 1.0656766015176707e+02
q_2_1 0
x_2_2 0
q_2_2 1
x_2_3 1.2864837797669549e+02
q_2_3 0
x_2_4 1.7367540569522315e+00
q_2_4 0
x_2_5 6.1531289720510614e+01
q_2_5 0
x_2_6 3.6169536847822812e+01
q_2_6 0
x_2_7 0
q_2_7 1
x_2_8 1.3789917851294265e+02
q_2_8 0
x_2_9 0
q_2_9 1
x_2_10 0
q_2_10 1
x_2_11 0
q_2_11 1
x_2_12 1.2505748800927047e+02
q_2_12 0
x_2_13 3.6854326329546261e+01
q_2_13 0
x_2_14 0
q_2_14 1
x_2_15 4.8840586646778533e+01
q_2_15 0
x_2_16 0
q_2_16 1
x_2_17 6.2420199665652525e+01
q_2_17 0
x_2_18 0
q_2_18 1
x_2_19 5.9435123676328764e+01
q_2_19 0
x_2_20 1.4357665288754364e+02
q_2_20 0
x_3_1 192.16040436785
q_3_1 0
x_3_2 0
q_3_2 1
x_3_3 0
q_3_3 1
x_3_4 0
q_3_4 1
x_3_5 0
q_3_5 1
x_3_6 0
q_3_6 1
x_3_7 1.0444888463780740e+02
q_3_7 0
x_3_8 0
q_3_8 1
x_3_9 1.4975371766006964e+02
q_3_9 0
x_3_10 3.0742668822544239e+01
q_3_10 0
x_3_11 0
q_3_11 1
x_3_12 0
q_3_12 1
x_3_13 0
q_3_13 1
x_3_14 0
q_3_14 1
x_3_15 0
q_3_15 1
x_3_16 0
q_3_16 1
x_3_17 7.3367864276081377e+01
q_3_17 0
x_3_18 1.7654480508087332e+01
q_3_18 0
x_3_19 0
q_3_19 1
x_3_20 0
q_3_20 1
x_4_1 1.6804306436189253e+02
q_4_1 0
x_4_2 1.1483079755068849e+02
q_4_2 0
x_4_3 0
q_4_3 1
x_4_4 6.7903181553090974e+01
q_4_4 0
x_4_5 0
q_4_5 1
x_4_6 2.7760558469398326e+01
q_4_6 0
x_4_7 0
q_4_7 1
x_4_8 1.9300140125341869e+02
q_4_8 0
x_4_9 206.194290613108
q_4_9 0
x_4_10 0
q_4_10 1
x_4_11 0
q_4_11 1
x_4_12 0
q_4_12 1
x_4_13 0
q_4_13 1
x_4_14 2.3096926241774959e+01
q_4_14 0
x_4_15 3.1812944793268613e+01
q_4_15 0
x_4_16 3.3135734576319658e+02
q_4_16 0
x_4_17 1.3832624583454287e+02
q_4_17 0
x_4_18 41.2691665587883
q_4_18 0
x_4_19 3.4039805826210170e+00
q_4_19 0
x_4_20 0
q_4_20 1
x_5_1 0
q_5_1 1
x_5_2 0
q_5_2 1
x_5_3 0
q_5_3 1
x_5_4 0
q_5_4 1
x_5_5 0
q_5_5 1
x_5_6 2.6341578005840552e+02
q_5_6 0
x_5_7 3.8789735799759427e+02
q_5_7 0
x_5_8 0
q_5_8 1
x_5_9 0
q_5_9 1
x_5_10 1.3336540914647949e+02
q_5_10 0
x_5_11 4.3576417274775355e+02
q_5_11 0
x_5_12 2.5821458587871558e+02
q_5_12 0
x_5_13 0
q_5_13 1
x_5_14 0
q_5_14 1
x_5_15 0
q_5_15 1
x_5_16 9.8809437032095872e+01
q_5_16 0
x_5_17 2.4357012499637912e+02
q_5_17 0
x_5_18 0
q_5_18 1
x_5_19 3.9395891753079411e+02
q_5_19 0
x_5_20 0
q_5_20 1
x_6_1 78.806203424947
q_6_1 0
x_6_2 3.8281178079104689e+02
q_6_2 0
x_6_3 0
q_6_3 1
x_6_4 0
q_6_4 1
x_6_5 0
q_6_5 1
x_6_6 0
q_6_6 1
x_6_7 0
q_6_7 1
x_6_8 4.1818085237496712e+02
q_6_8 0
x_6_9 7.2440367758275983e+01
q_6_9 0
x_6_10 589.984839042773
q_6_10 0
x_6_11 0
q_6_11 1
x_6_12 3.1971040726303818e+02
q_6_12 0
x_6_13 5.7724090169749775e+02
q_6_13 0
x_6_14 0
q_6_14 1
x_6_15 0
q_6_15 1
x_6_16 0
q_6_16 1
x_6_17 0
q_6_17 1
x_6_18 0
q_6_18 1
x_6_19 7.8047530621709041e+02
q_6_19 0
x_6_20 4.3594107083319335e+02
q_6_20 0
x_7_1 -5.4149961660281987e+00
q_7_1 0
